W=7;
H=7;

MAX_TIME=26;
MAX_TRACKS=17;

TARGET=(4,7);

TRAINS=[(4,2,RIGHT),(4,1,RIGHT)];
DECOYS=[(6,1,RIGHT)];

INIT_POS=[
(2,4,STRAIGHT_TD),
(2,5,ROCK),
(4,1,STRAIGHT_RL),
(4,2,STRAIGHT_RL),
(4,3,STRAIGHT_RL),
(4,4,STRAIGHT_RL),
(4,5,DSWITCH_T_D_L),
(4,7,STRAIGHT_RL),
(5,3,CORNER_DL),
(6,1,STRAIGHT_RL),
(6,4,STRAIGHT_TD),
(6,5,ROCK),
];
TUNNEL_PAIRS=[];

GATES=[];
ACTIVATIONS=[
(5,3,1),
];

DSWITCHES=[
(4,5,1),
];
STATIONS=[
  (2,4,2),
  (6,4,1),
];
